Route #1: 53 13 94 6 96 59 92 97 42 87 2 41 74 22 75 56 23 67 39 25 55 4 72 21 73 26 40
Route #2: 89 52 18 83 60 99 5 84 17 45 8 46 82 7 48 19 47 64 49 11 62 10 88 31 70 30 58
Route #3: 76 50 27 69 1 51 20 66 9 81 33 79 3 77 12 80 54 24 68 29 78 34 38 35 65 93 37
Route #4: 95 98 91 100 85 61 16 86 71 32 90 63 28 57 15 43 36 44 14
Cost 936
